
List of user-set options:

                                    Name   Value                used
                           compl_inf_tol = 1                     yes
                         constr_viol_tol = 1                     yes
                            dual_inf_tol = 1000                  yes
                           linear_solver = ma97                  yes
                              ma86_small = 1e-30                  no
                                  ma86_u = 0.0001                 no
                              ma97_order = best                  yes
                              ma97_small = 1e-30                 yes
                            ma97_switch1 = at_start              yes
                            ma97_switch2 = od_hd_reuse           yes
                                  ma97_u = 1e-06                 yes
                               ma97_umax = 0.5                   yes
                                max_iter = 1000                  yes
                    max_refinement_steps = 20                    yes
                    min_refinement_steps = 5                     yes
                                 mu_init = 1e-06                 yes
           mu_superlinear_decrease_power = 1.25                  yes
                   nlp_scaling_min_value = 1e-08                 yes
                        option_file_name = Preset_Case_53_pf.opt  yes
                             output_file = ./tmp/Preset_Case_53_pf.output  yes
                      print_user_options = yes                   yes
        required_infeasibility_reduction = 1                      no
                                     tol = 1e-08                 yes
                   warm_start_bound_frac = 1e-20                 yes
                   warm_start_bound_push = 1e-20                 yes
                   warm_start_init_point = yes                   yes
              warm_start_mult_bound_push = 1e-20                 yes
                warm_start_mult_init_max = 1e+40                 yes
             warm_start_slack_bound_frac = 1e-20                 yes
             warm_start_slack_bound_push = 1e-20                 yes

******************************************************************************
This program contains Ipopt, a library for large-scale nonlinear optimization.
 Ipopt is released as open source code under the Eclipse Public License (EPL).
         For more information visit http://projects.coin-or.org/Ipopt
******************************************************************************

This is Ipopt version 3.12.10, running with linear solver ma97.

Number of nonzeros in equality constraint Jacobian...:   123443
Number of nonzeros in inequality constraint Jacobian.:      213
Number of nonzeros in Lagrangian Hessian.............:    49069

Total number of variables............................:    31591
                     variables with only lower bounds:    12912
                variables with lower and upper bounds:    15130
                     variables with only upper bounds:        0
Total number of equality constraints.................:    31483
Total number of inequality constraints...............:       25
        inequality constraints with only lower bounds:        4
   inequality constraints with lower and upper bounds:        0
        inequality constraints with only upper bounds:       21

iter    objective    inf_pr   inf_du lg(mu)  ||d||  lg(rg) alpha_du alpha_pr  ls
   0 -5.0124973e+00 4.42e-03 1.02e+00  -6.0 0.00e+00    -  0.00e+00 0.00e+00   0
   1 -5.0377082e+00 9.37e+00 4.93e+01  -6.0 1.73e+06    -  1.80e-05 2.73e-04h  1
   2 -5.0376575e+00 9.37e+00 4.93e+01  -6.0 5.50e+02    -  1.03e-04 3.73e-05h  1
   3 -5.0337281e+00 9.35e+00 1.68e+02  -6.0 2.48e+03    -  1.14e-04 2.39e-03h  1
   4 -5.0299536e+00 9.32e+00 1.67e+02  -6.0 6.23e+02    -  1.44e-01 2.69e-03h  1
   5 -5.0156440e+00 9.23e+00 1.54e+02  -6.0 5.68e+02    -  3.04e-03 1.01e-02h  3
   6 -5.0127984e+00 9.21e+00 1.49e+02  -6.0 6.23e+02    -  1.90e-02 2.12e-03h  8
   7 -5.0120137e+00 9.20e+00 1.52e+02  -6.0 6.22e+02    -  3.97e-02 5.88e-04h 10
   8 -5.0117803e+00 9.20e+00 1.56e+02  -6.0 6.21e+02    -  4.09e-02 1.75e-04h 12
   9 -5.0116454e+00 9.20e+00 1.57e+02  -6.0 6.20e+02    -  2.35e-02 1.01e-04h 13
iter    objective    inf_pr   inf_du lg(mu)  ||d||  lg(rg) alpha_du alpha_pr  ls
  10 -4.4189151e+00 6.02e+00 2.21e+05  -6.0 6.20e+02    -  1.66e-01 4.45e-01h  1
  11 -4.4549872e+00 5.51e+00 1.96e+05  -6.0 4.10e+02    -  4.14e-01 9.24e-02h  1
  12 -4.6178029e+00 4.12e+00 3.50e+04  -6.0 3.78e+02    -  4.89e-02 3.72e-01h  1
  13 -4.6937962e+00 3.51e+00 2.18e+04  -6.0 7.88e+02    -  2.29e-01 1.53e-01h  1
  14 -5.0439171e+00 2.92e+00 4.58e+05  -6.0 4.21e+02    -  8.04e-02 7.72e-01h  1
  15 -5.0746427e+00 2.26e+00 3.55e+05  -6.0 3.09e+01  -4.0 1.84e-02 2.28e-01h  1
  16 -5.0758378e+00 2.23e+00 3.51e+05  -6.0 3.87e+01  -4.5 1.12e-01 1.11e-02h  1
  17 -5.1273435e+00 9.43e-01 1.31e+05  -6.0 2.07e+01  -5.0 1.53e-04 6.05e-01f  1
  18 -5.1551798e+00 2.90e-01 4.03e+04  -6.0 1.07e+01  -5.4 6.22e-01 6.92e-01h  1
  19 -5.1710685e+00 2.36e-02 1.22e+03  -6.0 2.35e+01  -5.9 7.76e-01 1.00e+00h  1
iter    objective    inf_pr   inf_du lg(mu)  ||d||  lg(rg) alpha_du alpha_pr  ls
  20 -5.1785133e+00 1.74e-01 6.02e+03  -6.0 6.44e+01  -6.4 4.47e-01 7.53e-01h  1
  21 -5.1781033e+00 6.45e-02 6.38e+02  -6.0 2.43e+01  -6.0 6.64e-01 1.00e+00h  1
  22 -5.1802673e+00 1.34e-02 7.09e+01  -6.0 7.61e+00  -5.5 1.00e+00 1.00e+00h  1
  23 -5.1809607e+00 3.24e-02 5.71e+01  -6.0 2.92e+01  -6.0 2.52e-01 2.35e-01h  1
  24 -5.1850173e+00 6.12e-01 2.51e+02  -6.0 4.59e+01  -6.5 1.00e+00 8.92e-01f  1
  25 -5.1852198e+00 4.65e-01 1.80e+02  -6.0 2.43e+01  -6.1 2.42e-01 2.42e-01h  1
  26 -5.1897779e+00 4.14e-01 1.76e+03  -6.0 9.06e+01  -6.5 1.00e+00 6.15e-01h  1
  27 -5.1962677e+00 4.73e-01 3.67e+02  -6.0 2.20e+02  -7.0 2.60e-01 5.24e-01h  1
  28 -5.1974433e+00 2.83e-01 1.35e+03  -6.0 8.70e+01  -7.5 4.50e-01 5.50e-01h  1
  29 -5.2037541e+00 2.85e+00 3.97e+04  -6.0 2.41e+03    -  3.18e-02 3.53e-01h  1
iter    objective    inf_pr   inf_du lg(mu)  ||d||  lg(rg) alpha_du alpha_pr  ls
  30 -5.2042092e+00 2.24e+00 3.14e+04  -6.0 7.87e+01  -7.1 5.18e-01 2.14e-01h  1
  31 -5.2068944e+00 4.06e-01 9.01e+02  -6.0 1.15e+02  -7.5 4.58e-01 1.00e+00h  1
  32 -5.2094268e+00 5.50e-01 8.80e+02  -6.0 7.99e+03    -  8.09e-02 8.51e-02h  1
  33 -5.2113108e+00 6.23e-01 5.02e+03  -6.0 2.33e+02  -8.0 9.38e-01 3.63e-01h  1
  34 -5.2128111e+00 5.44e-01 5.69e+03  -6.0 7.79e+02  -8.5 2.91e-01 2.09e-01h  1
  35 -5.2143561e+00 6.94e-01 1.90e+04  -6.0 7.48e+01  -6.3 4.89e-01 1.00e+00h  1
  36 -5.2123859e+00 1.53e-02 9.16e+02  -6.0 6.08e+00  -4.9 9.16e-01 1.00e+00h  1
  37 -5.2128907e+00 1.22e-02 3.70e+00  -6.0 5.92e+00  -5.4 1.00e+00 1.00e+00h  1
  38 -5.2138869e+00 1.69e-02 5.93e+00  -6.0 1.92e+01  -5.9 1.00e+00 1.00e+00h  1
  39 -5.2148393e+00 2.18e-01 8.12e+00  -6.0 5.11e+01  -6.4 3.22e-01 3.50e-01h  1
iter    objective    inf_pr   inf_du lg(mu)  ||d||  lg(rg) alpha_du alpha_pr  ls
  40 -5.2149362e+00 2.46e-01 4.82e+01  -6.0 2.46e+02  -6.8 1.83e-01 1.12e-02h  1
  41 -5.2174773e+00 8.49e-01 2.57e+01  -6.0 4.70e+01  -6.4 1.00e+00 1.00e+00h  1
  42 -5.2181443e+00 2.12e+00 2.91e+01  -6.0 1.15e+02  -6.9 2.83e-01 2.36e-01h  1
  43 -5.2188165e+00 5.60e-02 1.85e+00  -6.0 7.19e+00  -5.6 1.00e+00 1.00e+00h  1
  44 -5.2194117e+00 3.18e-02 9.31e-01  -6.0 2.44e+00  -5.1 9.44e-01 1.00e+00h  1
  45 -5.2197958e+00 2.45e-01 6.68e+00  -6.0 2.26e+01  -5.6 3.66e-01 2.18e-01h  1
  46 -5.2214422e+00 2.85e-01 2.16e+01  -6.0 1.89e+01  -6.1 1.00e+00 1.00e+00h  1
  47 -5.2217550e+00 2.18e-02 2.90e+01  -6.0 2.00e+00  -4.8 1.00e+00 1.00e+00h  1
  48 -5.2229688e+00 3.78e-01 2.79e+01  -6.0 7.09e+00  -5.2 7.74e-01 9.81e-01h  1
  49 -5.2232248e+00 3.60e-01 3.91e+03  -6.0 1.37e+01  -5.7 5.42e-02 1.00e-01h  1
iter    objective    inf_pr   inf_du lg(mu)  ||d||  lg(rg) alpha_du alpha_pr  ls
  50 -5.2251423e+00 2.32e-01 4.75e+03  -6.0 2.48e+01  -6.2 8.97e-01 1.00e+00f  1
  51 -5.2264199e+00 3.33e-01 6.65e+03  -6.0 9.96e+00  -5.8 7.79e-01 1.00e+00h  1
  52 -5.2280749e+00 2.73e-01 1.68e+04  -6.0 3.09e+01  -6.2 2.19e-01 1.00e+00h  1
  53 -5.2291290e+00 2.38e-03 2.24e+02  -6.0 1.11e+01  -5.8 9.84e-01 1.00e+00h  1
  54 -5.2322612e+00 7.10e-01 1.61e+02  -6.0 5.77e+01  -6.3 3.17e-01 9.96e-01h  1
  55 -5.2351381e+00 7.99e-02 1.28e+01  -6.0 1.86e+01  -5.9 1.00e+00 1.00e+00h  1
  56 -5.2400757e+00 1.16e+00 1.15e+02  -6.0 9.88e+01  -6.4 8.60e-02 5.27e-01h  1
  57 -5.2494832e+00 1.10e+00 3.41e+02  -6.0 7.53e+02  -6.8 7.24e-02 1.42e-01h  1
  58 -5.2609430e+00 1.11e+00 3.45e+02  -6.0 7.90e+02  -7.3 2.29e-01 8.16e-02h  1
  59 -5.3481431e+00 2.96e+00 1.35e+03  -6.0 1.69e+03  -7.8 2.03e-01 2.69e-01h  1
iter    objective    inf_pr   inf_du lg(mu)  ||d||  lg(rg) alpha_du alpha_pr  ls
  60 -5.4465105e+00 2.61e+00 2.03e+02  -6.0 1.15e+03  -7.4 5.38e-04 3.67e-01h  1
  61 -5.4607739e+00 2.56e+00 1.99e+02  -6.0 3.86e+03  -7.8 4.90e-02 2.98e-02h  1
  62 -5.5576436e+00 6.17e+00 6.80e+02  -6.0 8.50e+03    -  1.02e-01 8.82e-02h  1
  63 -5.5914641e+00 1.89e+01 1.49e+03  -6.0 1.66e+04    -  7.34e-02 5.32e-02h  1
  64 -5.6519749e+00 1.69e+01 2.11e+04  -6.0 5.01e+03    -  5.64e-01 1.08e-01h  1
  65 -5.6697759e+00 1.65e+01 2.89e+04  -6.0 4.62e+03    -  3.23e-01 3.53e-02h  1
  66 -5.6886831e+00 1.86e+01 2.08e+04  -6.0 3.23e+03    -  6.76e-02 1.79e-01h  1
  67 -5.6957164e+00 1.89e+01 1.49e+04  -6.0 3.28e+03    -  9.81e-03 9.25e-02h  1
  68 -5.6976998e+00 1.88e+01 2.11e+04  -6.0 1.23e+04    -  1.01e-01 2.75e-03h  1
  69 -5.7760924e+00 3.43e+01 7.45e+03  -6.0 6.88e+03    -  5.17e-03 1.77e-01h  1
iter    objective    inf_pr   inf_du lg(mu)  ||d||  lg(rg) alpha_du alpha_pr  ls
  70 -5.8162094e+00 3.06e+01 1.60e+04  -6.0 3.60e+03    -  3.09e-01 1.94e-01h  1
  71r-5.8162094e+00 3.06e+01 1.00e+03   1.4 0.00e+00  -8.3 0.00e+00 3.65e-07R  4
  72r-5.8273381e+00 3.06e+01 1.00e+03   1.4 3.61e+07    -  3.64e-08 8.71e-08f  1
  73 -5.9627862e+00 3.06e+01 7.96e+02  -6.0 2.13e+06    -  1.24e-05 8.48e-04h  1
  74 -5.9909863e+00 3.06e+01 7.93e+02  -6.0 1.49e+06    -  2.31e-04 4.11e-04h  1
  75 -6.0056646e+00 3.06e+01 7.95e+02  -6.0 1.01e+06    -  6.41e-04 4.42e-04f  1
  76 -6.0282241e+00 3.06e+01 8.14e+02  -6.0 7.26e+05    -  3.07e-03 9.43e-04h  1
  77 -6.1347844e+00 3.11e+01 7.80e+02  -6.0 4.10e+05    -  5.80e-03 9.20e-03h  1
  78 -6.1424011e+00 3.09e+01 8.04e+02  -6.0 5.57e+04    -  3.19e-05 7.80e-03h  1
  79 -6.1459160e+00 3.06e+01 1.71e+03  -6.0 1.90e+04    -  7.65e-04 1.08e-02h  1
iter    objective    inf_pr   inf_du lg(mu)  ||d||  lg(rg) alpha_du alpha_pr  ls
  80 -6.1451977e+00 3.04e+01 1.15e+03  -6.0 2.51e+04    -  3.52e-02 4.97e-03h  1
  81 -6.1400923e+00 3.14e+01 7.62e+02  -6.0 1.17e+04    -  5.04e-03 2.55e-02h  3
  82 -6.1372036e+00 3.11e+01 8.93e+03  -6.0 4.38e+03    -  1.09e-01 1.06e-02h  2
  83 -6.0574500e+00 2.31e+01 1.60e+04  -6.0 3.80e+03    -  4.00e-01 2.92e-01h  1
  84 -5.9945818e+00 1.48e+01 3.25e+04  -6.0 5.51e+02  -7.9 1.43e-02 3.61e-01h  1
  85 -5.9792164e+00 1.27e+01 7.47e+04  -6.0 2.35e+03    -  6.71e-04 1.62e-01h  1
  86 -5.9747502e+00 1.21e+01 7.14e+04  -6.0 3.96e+02  -6.6 9.37e-03 4.63e-02h  1
  87 -5.9718657e+00 1.16e+01 7.42e+04  -6.0 2.06e+02  -6.1 4.03e-02 3.63e-02h  1
  88 -5.9304562e+00 5.66e+00 6.37e+04  -6.0 5.48e+01  -6.6 3.15e-01 5.14e-01h  1
  89 -5.9289684e+00 5.12e+00 6.07e+04  -6.0 4.23e+02  -7.1 6.06e-02 9.51e-02h  1
iter    objective    inf_pr   inf_du lg(mu)  ||d||  lg(rg) alpha_du alpha_pr  ls
  90 -5.9318992e+00 4.90e+00 7.60e+03  -6.0 1.41e+03  -7.6 1.46e-01 4.30e-02h  1
  91 -5.9362630e+00 4.36e+00 8.80e+04  -6.0 2.18e+03    -  2.85e-02 1.13e-01h  1
  92 -5.9396685e+00 8.16e+00 5.21e+04  -6.0 7.95e+04    -  1.54e-02 7.28e-03h  1
  93 -5.9430275e+00 1.06e+01 2.91e+05  -6.0 1.27e+03  -8.0 1.44e-01 3.86e-01h  1
  94 -5.9430202e+00 1.06e+01 3.38e+05  -6.0 5.75e+02  -5.8 3.36e-03 2.95e-03h  1
  95 -5.9432382e+00 1.05e+01 1.26e+05  -6.0 2.15e+03    -  6.21e-01 5.31e-03h  1
  96 -5.9480752e+00 9.59e+00 1.34e+05  -6.0 1.68e+03    -  9.77e-02 8.85e-02h  1
  97 -5.9600310e+00 1.26e+01 5.98e+04  -6.0 1.56e+03    -  1.00e+00 5.03e-01h  1
  98 -5.9647976e+00 7.74e+00 2.08e+04  -6.0 6.71e+02    -  1.46e-03 5.30e-01h  1
  99 -5.9664307e+00 2.82e+00 6.62e+04  -6.0 4.29e+02    -  3.58e-01 6.36e-01h  1
iter    objective    inf_pr   inf_du lg(mu)  ||d||  lg(rg) alpha_du alpha_pr  ls
 100 -5.9664493e+00 2.82e+00 6.62e+04  -6.0 3.07e+02  -6.3 1.82e-03 2.39e-03h  1
 101 -5.9703851e+00 8.48e-01 7.57e+04  -6.0 4.54e+01  -6.8 4.72e-01 7.02e-01h  1
 102 -5.9707942e+00 8.44e-01 7.35e+04  -6.0 8.72e+03    -  1.25e-01 1.99e-02h  1
 103 -5.9728931e+00 1.60e+00 2.79e+05  -6.0 1.83e+03    -  3.13e-01 1.27e-01h  1
 104r-5.9728931e+00 1.60e+00 1.00e+03   0.0 0.00e+00  -6.3 0.00e+00 2.91e-07R  2
 105r-5.9795046e+00 1.59e+00 1.09e+03   0.0 1.16e+04    -  7.01e-06 1.62e-06f  1
 106 -5.9792234e+00 1.55e+00 3.49e+04  -6.0 4.66e+02    -  8.60e-03 3.02e-02h  1
 107 -5.9778740e+00 1.33e+00 1.88e+04  -6.0 7.27e-01    -  3.02e-02 1.37e-01h  1
 108 -5.9772611e+00 1.24e+00 1.74e+04  -6.0 6.42e-01    -  3.19e-01 7.16e-02h  1
 109 -5.9733011e+00 6.23e-01 8.76e+03  -6.0 6.35e-01    -  4.56e-01 4.97e-01h  1
iter    objective    inf_pr   inf_du lg(mu)  ||d||  lg(rg) alpha_du alpha_pr  ls
 110 -5.9693134e+00 6.90e-05 5.98e+01  -6.0 4.50e-01    -  5.86e-01 1.00e+00h  1
 111 -5.9694234e+00 3.00e-05 4.45e+01  -6.0 3.65e-01    -  6.15e-01 1.00e+00h  1
 112 -5.9698125e+00 6.56e-04 4.41e+00  -6.0 8.72e-01    -  9.02e-01 1.00e+00h  1
 113 -5.9701589e+00 1.43e-03 2.22e+00  -6.0 5.03e+00    -  4.88e-01 1.00e+00h  1
 114 -5.9701025e+00 5.66e-06 1.76e-02  -6.0 9.32e+00    -  9.95e-01 1.00e+00H  1
 115 -5.9721306e+00 5.88e-01 8.90e+00  -6.0 6.62e+02    -  7.03e-01 3.92e-01H  1
 116 -5.9704182e+00 3.80e-02 1.25e+02  -6.0 6.75e+01  -6.8 1.47e-01 1.00e+00h  1
 117 -5.9717539e+00 4.91e-02 6.52e+01  -6.0 1.79e+02  -7.3 4.51e-02 3.77e-01h  1
 118 -5.9718159e+00 4.90e-02 6.51e+01  -6.0 2.00e+02  -6.0 1.45e-04 5.22e-04h  1
 119 -5.9718159e+00 4.90e-02 6.51e+01  -6.0 1.60e+05  -6.4 4.03e-11 1.20e-09f  2
iter    objective    inf_pr   inf_du lg(mu)  ||d||  lg(rg) alpha_du alpha_pr  ls
 120 -5.9718148e+00 4.90e-02 6.48e+01  -6.0 1.09e+02  -2.4 2.44e-03 3.95e-06f  2
 121 -5.9721559e+00 7.62e-02 7.80e+01  -6.0 5.37e+02    -  8.08e-01 8.67e-02h  1
 122 -5.9724241e+00 9.32e-06 3.82e+00  -6.0 7.54e-02  -2.9 6.97e-01 1.00e+00h  1
 123 -5.9724268e+00 2.26e-06 5.83e-03  -6.0 2.75e-02  -3.4 1.00e+00 1.00e+00h  1
 124 -5.9731463e+00 7.44e-01 8.99e-01  -6.0 6.15e+02    -  5.01e-01 4.50e-01H  1
 125 -5.9730409e+00 9.63e-06 4.01e-04  -6.0 2.53e-02  -3.8 1.00e+00 1.00e+00h  1
 126 -5.9732712e+00 4.49e-02 7.21e+00  -6.0 3.59e+02    -  4.32e-01 1.00e+00H  1
 127 -5.9732717e+00 5.58e-08 1.12e-04  -6.0 1.70e-01  -4.3 1.00e+00 1.00e+00h  1
 128 -5.9733061e+00 7.43e-02 1.12e+01  -6.0 6.71e+01    -  1.43e-01 1.00e+00h  1
 129 -5.9733248e+00 2.05e-07 3.04e-04  -6.0 5.72e-01  -4.8 1.00e+00 1.00e+00h  1
iter    objective    inf_pr   inf_du lg(mu)  ||d||  lg(rg) alpha_du alpha_pr  ls
 130 -5.9733433e+00 2.23e-06 9.11e-04  -6.0 1.66e+00  -5.3 1.00e+00 1.00e+00h  1
 131 -5.9733947e+00 1.33e-05 6.43e-03  -6.0 4.67e+00  -5.7 1.00e+00 1.00e+00h  1
 132 -5.9735344e+00 7.34e-05 2.47e-02  -6.0 1.27e+01  -6.2 1.00e+00 1.00e+00h  1
 133 -5.9739540e+00 3.93e-03 1.65e-01  -6.0 3.70e+01  -6.7 1.00e+00 1.00e+00h  1
 134 -5.9769186e+00 5.72e-01 3.92e+01  -6.0 1.97e+02  -7.2 3.60e-01 1.00e+00h  1
 135 -5.9814008e+00 8.71e-02 1.08e+00  -6.0 8.15e+01  -6.7 1.00e+00 1.00e+00h  1
 136 -5.9952787e+00 1.94e+00 2.17e+01  -6.0 3.70e+02  -7.2 7.55e-01 1.00e+00h  1
 137 -6.0507355e+00 9.55e+00 1.75e+02  -6.0 1.18e+03  -7.7 3.75e-01 1.00e+00h  1
 138 -6.0545536e+00 8.57e+00 1.58e+02  -6.0 2.30e+03    -  3.89e-01 1.04e-01h  1
 139 -6.0828706e+00 6.76e+00 1.76e+02  -6.0 2.03e+03    -  5.69e-01 1.00e+00h  1
iter    objective    inf_pr   inf_du lg(mu)  ||d||  lg(rg) alpha_du alpha_pr  ls
 140 -6.0755481e+00 3.44e+00 8.95e+01  -6.0 4.55e+00  -4.6 9.43e-01 4.92e-01h  1
 141 -6.0751280e+00 2.65e+00 6.91e+01  -6.0 2.02e+01  -5.0 1.07e-01 2.28e-01h  1
 142 -6.0687722e+00 6.51e-02 1.59e+01  -6.0 5.49e+00  -5.5 1.00e+00 1.00e+00h  1
 143 -6.0700698e+00 3.53e-01 1.40e+01  -6.0 2.17e+00  -4.2 1.00e+00 1.00e+00h  1
 144 -6.0731396e+00 1.84e+00 3.76e+02  -6.0 7.72e+01  -4.7 6.71e-02 5.96e-02h  1
 145 -6.0746290e+00 1.60e+00 4.14e+04  -6.0 7.11e+00  -5.1 1.00e+00 1.93e-01h  1
 146 -6.0826855e+00 2.83e+00 1.22e+04  -6.0 6.84e+00  -5.6 5.87e-01 1.00e+00h  1
 147 -6.0896205e+00 1.22e+00 5.74e+04  -6.0 2.20e+01  -6.1 4.13e-01 6.31e-01h  1
 148 -6.0996866e+00 4.54e-01 1.65e+05  -6.0 6.73e+01  -6.6 3.14e-01 6.19e-01f  1
 149 -6.1023084e+00 4.21e-01 1.47e+02  -6.0 2.74e+01  -5.2 2.88e-01 1.20e-01h  1
iter    objective    inf_pr   inf_du lg(mu)  ||d||  lg(rg) alpha_du alpha_pr  ls
 150 -6.1034640e+00 3.96e-01 4.89e+04  -6.0 4.01e+01  -5.7 1.70e-01 6.00e-02h  1
 151r-6.1034640e+00 3.96e-01 1.00e+03  -0.8 0.00e+00  -6.2 0.00e+00 2.08e-07R  2
 152r-6.0964754e+00 3.94e-01 1.00e+03  -0.8 1.96e+04    -  3.00e-06 4.99e-06f  1
 153 -6.1317685e+00 2.63e+00 2.96e+02  -6.0 1.00e+06    -  1.81e-03 2.75e-03f  1
 154 -6.1779885e+00 2.80e+00 2.97e+02  -6.0 6.03e+05    -  1.36e-03 2.74e-03h  1
 155 -6.1828502e+00 2.96e+00 3.59e+02  -6.0 8.84e+04    -  2.60e-02 3.58e-03f  1
 156 -6.1926000e+00 9.75e+00 4.61e+02  -6.0 2.42e+04    -  9.77e-02 4.97e-02h  1
 157 -6.1891612e+00 9.33e+00 4.65e+02  -6.0 3.02e+02  -6.7 7.34e-03 4.27e-02h  1
 158 -6.1878290e+00 9.17e+00 4.46e+02  -6.0 3.28e+02  -7.2 3.58e-02 1.77e-02h  1
 159 -6.1842077e+00 8.68e+00 4.10e+02  -6.0 5.01e+02  -7.6 8.69e-02 5.27e-02h  4
iter    objective    inf_pr   inf_du lg(mu)  ||d||  lg(rg) alpha_du alpha_pr  ls
 160 -6.1838941e+00 8.65e+00 3.71e+02  -6.0 2.00e+02  -7.2 1.12e-01 3.93e-03h  8
 161 -6.1837406e+00 8.63e+00 2.48e+02  -6.0 4.77e+02  -7.7 6.28e-01 2.21e-03h  9
 162 -6.1192227e+00 1.73e+00 1.63e+03  -6.0 2.22e+02  -7.3 1.01e-01 8.21e-01h  1
 163 -6.1057118e+00 2.73e-01 2.12e+02  -6.0 5.64e+01  -6.8 1.80e-01 1.00e+00h  1
 164 -6.1075024e+00 2.39e-01 1.73e+02  -6.0 3.10e+02  -7.3 8.35e-02 1.63e-01h  1
 165 -6.1120000e+00 9.45e-02 3.89e+01  -6.0 7.56e+01  -6.9 1.62e-01 1.00e+00f  1
 166 -6.1156879e+00 3.55e-01 2.55e+01  -6.0 4.07e+02  -7.4 4.35e-01 3.26e-01h  1
 167 -6.1194602e+00 1.99e-01 1.21e+01  -6.0 1.12e+02  -6.9 1.00e+00 1.00e+00h  1
 168 -6.1364942e+00 2.57e+00 7.63e+01  -6.0 4.63e+02  -7.4 6.19e-01 1.00e+00h  1
 169 -6.2059723e+00 1.33e+01 4.07e+02  -6.0 4.88e+03    -  1.25e-01 4.59e-01h  1
iter    objective    inf_pr   inf_du lg(mu)  ||d||  lg(rg) alpha_du alpha_pr  ls
 170 -6.1695053e+00 5.86e+00 4.19e+02  -6.0 1.24e+03    -  7.33e-01 9.39e-01h  1
 171 -6.1794491e+00 1.30e-01 2.21e+03  -6.0 7.78e+02    -  1.00e-04 1.00e+00h  1
 172 -6.1770203e+00 5.66e-02 9.04e-01  -6.0 5.64e+01    -  1.00e+00 1.00e+00h  1
 173 -6.1817408e+00 6.43e-01 1.09e+01  -6.0 2.17e+02    -  5.10e-01 8.73e-01h  1
 174 -6.1833085e+00 1.29e+01 4.73e+02  -6.0 1.71e+03  -7.9 3.98e-01 2.82e-01H  1
 175 -6.1820617e+00 1.09e+01 4.06e+02  -6.0 7.60e+01  -5.7 1.48e-01 1.64e-01h  3
 176 -6.1817851e+00 1.07e+01 5.67e+02  -6.0 2.03e+02  -6.1 5.78e-02 1.64e-02h  3
 177 -6.1875458e+00 8.24e-02 4.89e+00  -6.0 2.96e+00  -4.8 9.79e-01 1.00e+00h  1
 178 -6.1878364e+00 7.41e-02 1.93e+03  -6.0 5.41e+00  -5.3 1.00e+00 1.02e-01h  1
 179 -6.1922494e+00 2.58e+00 1.34e+03  -6.0 2.18e+03    -  4.28e-03 1.81e-01f  1
iter    objective    inf_pr   inf_du lg(mu)  ||d||  lg(rg) alpha_du alpha_pr  ls
 180 -6.1924530e+00 2.55e+00 1.27e+03  -6.0 1.24e+03    -  1.07e-03 1.57e-02h  1
 181 -6.1924977e+00 2.55e+00 1.28e+03  -6.0 1.09e+04    -  7.60e-07 4.84e-04f  1
 182 -6.1924840e+00 2.55e+00 1.27e+03  -6.0 2.25e+04    -  2.21e-08 7.17e-05h  1
 183 -6.1925121e+00 2.55e+00 1.28e+03  -6.0 4.57e+04    -  3.26e-08 7.43e-05f  1
 184 -6.1925027e+00 2.55e+00 1.28e+03  -6.0 1.52e+04    -  4.17e-08 7.35e-05h  1
 185 -6.1925236e+00 2.54e+00 1.28e+03  -6.0 3.41e+04    -  5.77e-08 7.38e-05f  1
 186 -6.1925171e+00 2.54e+00 1.28e+03  -6.0 1.05e+04    -  7.57e-08 7.32e-05h  1
 187 -6.1925326e+00 2.54e+00 1.28e+03  -6.0 2.54e+04    -  1.04e-07 7.33e-05f  1
 188 -6.1925283e+00 2.54e+00 1.28e+03  -6.0 7.16e+03    -  1.40e-07 7.28e-05h  1
 189 -6.1925399e+00 2.54e+00 1.29e+03  -6.0 1.90e+04    -  1.90e-07 7.27e-05f  1
iter    objective    inf_pr   inf_du lg(mu)  ||d||  lg(rg) alpha_du alpha_pr  ls
 190 -6.1925370e+00 2.54e+00 1.28e+03  -6.0 4.76e+03    -  2.62e-07 7.22e-05h  1
 191 -6.1925456e+00 2.54e+00 1.29e+03  -6.0 1.42e+04    -  3.55e-07 7.20e-05f  1
 192 -6.1925439e+00 2.54e+00 1.28e+03  -6.0 3.03e+03    -  5.01e-07 7.15e-05h  1
 193 -6.1925503e+00 2.54e+00 1.29e+03  -6.0 1.07e+04    -  6.75e-07 7.11e-05f  1
 194 -6.1925494e+00 2.54e+00 1.28e+03  -6.0 1.77e+03    -  9.85e-07 7.06e-05h  1
 195 -6.1925542e+00 2.54e+00 1.29e+03  -6.0 8.01e+03    -  1.32e-06 7.00e-05f  1
 196 -6.1925538e+00 2.54e+00 1.28e+03  -6.0 8.71e+02    -  2.01e-06 6.94e-05h  1
 197 -6.1925574e+00 2.54e+00 1.28e+03  -6.0 6.05e+03    -  2.67e-06 6.86e-05f  1
 198 -6.1925574e+00 2.54e+00 1.28e+03  -6.0 5.26e+02    -  4.34e-06 6.79e-05h  1
 199 -6.1925601e+00 2.54e+00 1.28e+03  -6.0 4.59e+03    -  5.71e-06 6.69e-05f  1
iter    objective    inf_pr   inf_du lg(mu)  ||d||  lg(rg) alpha_du alpha_pr  ls
 200 -6.1925604e+00 2.54e+00 1.28e+03  -6.0 4.46e+02    -  1.03e-05 6.64e-05h  1
 201 -6.1925624e+00 2.54e+00 1.28e+03  -6.0 3.49e+03    -  1.33e-05 6.54e-05f  1
 202 -6.1925628e+00 2.54e+00 1.28e+03  -6.0 4.72e+02    -  3.00e-05 6.54e-05h  1
 203 -6.1925644e+00 2.54e+00 1.28e+03  -6.0 2.65e+03    -  3.69e-05 6.51e-05f  1
 204 -6.1925649e+00 2.54e+00 1.28e+03  -6.0 5.87e+02    -  1.96e-04 6.74e-05f  1
 205 -6.1925669e+00 2.54e+00 1.82e+03  -6.0 1.57e+03    -  2.83e-01 1.31e-04f  1
 206 -6.2047344e+00 2.27e+01 8.33e+01  -6.0 1.21e+03    -  1.00e+00 9.80e-01f  1
 207 -6.2013392e+00 2.03e+00 6.51e+03  -6.0 3.41e+02    -  5.37e-01 1.00e+00h  1
 208 -6.2019998e+00 1.77e+00 4.59e+04  -6.0 4.86e+02    -  9.97e-01 2.02e-01h  1
 209 -6.2054714e+00 3.59e+00 1.49e+04  -6.0 4.78e+02    -  5.37e-01 1.00e+00h  1
iter    objective    inf_pr   inf_du lg(mu)  ||d||  lg(rg) alpha_du alpha_pr  ls
 210 -6.2073087e+00 2.84e+00 8.39e+04  -6.0 5.06e+02    -  7.34e-01 3.58e-01h  1
 211 -6.2083973e+00 2.57e+00 5.88e+04  -6.0 6.82e+02    -  1.02e-01 1.86e-01h  1
 212r-6.2083973e+00 2.57e+00 1.00e+03   0.3 0.00e+00  -5.8 0.00e+00 1.96e-07R  2
 213r-6.2240643e+00 2.57e+00 1.00e+03   0.3 1.39e+04    -  4.04e-06 1.14e-06f  1
 214 -6.2221953e+00 2.26e+00 9.59e+05  -6.0 7.66e-01    -  7.12e-01 1.18e-01h  1
 215 -6.2188693e+00 1.73e+00 1.90e+06  -6.0 6.65e-01    -  1.18e-01 2.37e-01h  1
 216 -6.2081609e+00 3.65e-05 9.33e+01  -6.0 5.07e-01    -  7.07e-01 1.00e+00h  1
 217 -6.2082849e+00 5.98e-05 8.15e+00  -6.0 5.96e-01    -  9.43e-01 1.00e+00h  1
 218 -6.2084593e+00 2.58e-04 1.92e+00  -6.0 1.72e+00    -  8.20e-01 1.00e+00h  1
 219 -6.2083770e+00 2.04e-06 2.88e-02  -6.0 4.75e+00    -  9.98e-01 1.00e+00H  1
iter    objective    inf_pr   inf_du lg(mu)  ||d||  lg(rg) alpha_du alpha_pr  ls
 220 -6.2083768e+00 3.26e-04 1.37e+00  -6.0 2.10e+00  -6.2 1.00e+00 3.12e-02h  6
 221 -6.2083835e+00 3.45e-04 1.27e+00  -6.0 6.23e+01    -  1.00e+00 7.42e-02h  4
 222 -6.2084547e+00 4.86e-02 5.48e-02  -6.0 5.48e+01    -  1.00e+00 1.00e+00h  1
 223 -6.2084204e+00 5.18e-05 5.48e-05  -6.0 1.83e+00    -  1.00e+00 1.00e+00h  1
 224 -6.2084204e+00 4.23e-10 1.43e-09  -6.0 2.50e-03    -  1.00e+00 1.00e+00h  1
 225 -6.2084930e+00 9.99e-02 6.12e+01  -7.5 1.03e+02    -  9.57e-01 7.45e-01h  1
 226 -6.2084973e+00 2.26e-02 1.09e+01  -7.5 2.68e+01    -  1.00e+00 8.67e-01h  1
 227 -6.2084966e+00 1.80e-04 4.89e-03  -7.5 3.23e+00    -  1.00e+00 1.00e+00h  1
 228 -6.2084966e+00 6.84e-10 9.40e-10  -7.5 6.54e-03    -  1.00e+00 1.00e+00h  1
 229 -6.2084980e+00 1.33e-04 6.70e-01  -9.0 3.28e+00    -  9.24e-01 8.51e-01h  1
iter    objective    inf_pr   inf_du lg(mu)  ||d||  lg(rg) alpha_du alpha_pr  ls
 230 -6.2084983e+00 4.08e-06 3.42e-01  -9.0 4.90e-01    -  9.15e-01 1.00e+00f  1
 231 -6.2084983e+00 2.85e-10 3.87e-09  -9.0 1.65e-04    -  1.00e+00 1.00e+00h  1

Number of Iterations....: 231

                                   (scaled)                 (unscaled)
Objective...............:  -4.8503892917505205e+00   -6.2084982934406661e+00
Dual infeasibility......:   3.8740750967991944e-09    4.9588161239029687e-09
Constraint violation....:   2.8536352187497060e-10    2.8536352187497060e-10
Complementarity.........:   1.3091193123198127e-09    1.6756727197693603e-09
Overall NLP error.......:   3.8740750967991944e-09    4.9588161239029687e-09


Number of objective function evaluations             = 333
Number of objective gradient evaluations             = 232
Number of equality constraint evaluations            = 333
Number of inequality constraint evaluations          = 333
Number of equality constraint Jacobian evaluations   = 236
Number of inequality constraint Jacobian evaluations = 236
Number of Lagrangian Hessian evaluations             = 231
Total CPU secs in IPOPT (w/o function evaluations)   =    584.064
Total CPU secs in NLP function evaluations           =      9.430

EXIT: Optimal Solution Found.
